benchmark_instances/dzn_benchmark_instances/benchmark_instance_6-3.dzn
% Input: sequence of points
seq_points = [|1,1
              |4,1
              |4,2
              |5,2
              |1,5
              |2,5
              |5,5
              |6,0
              |2,6
              |6,6
              |0,5
              |0,0
             |];

num_points = 12;
