benchmark_instances/lp_benchmark_instances/benchmark_instance_6-3.lp
% Input: sequence of points
point(1,1).
point(4,1).
point(4,2).
point(5,2).
point(1,5).
point(2,5).
point(5,5).
point(6,0).
point(2,6).
point(6,6).
point(0,5).
point(0,0).
